###lammps NEMD_heat flux for PbTe
### Basic setup ###

variable        t equal 300
units           metal
boundary	p p p
timestep 	0.001 #1fs
atom_style      atomic
processors      * * 1     # domain decomposition over x and y

### Structure ###
variable   fb equal 6.57
variable   lb equal 32.88
variable   oneb equal 59.15
variable   twob equal 85.42
variable   threeb equal 111.69
variable   fourb equal 137.96
variable   fiveb equal 164.23
variable   sixb equal 190.50
variable   sevenb equal 216.77
variable   eightb equal 243.04
variable   nineb equal 269.31
variable   tenb equal 295.58
variable   hb equal 321.85

read_data       PbTe.data  
region		fixed    	block INF INF INF ${fb}  INF INF
group		gfixed    	region fixed
region		tlow      	block INF INF  ${fb} ${lb}  INF INF
region		thigh	   	block INF INF ${tenb} INF  INF INF
group		gthigh	   	region thigh	   		
group		gtlow	   	region tlow
group		innt      	subtract all gfixed 
group		innernt   	subtract all gfixed gthigh gtlow

region		block1		block INF INF  ${lb}  ${oneb} INF INF 
region		block2		block INF INF  ${oneb}  ${twob} INF INF
region		block3		block INF INF  ${twob}  ${threeb} INF INF
region		block4		block INF INF  ${threeb}  ${fourb} INF INF
region		block5		block INF INF  ${fourb}  ${fiveb} INF INF
region		block6		block INF INF  ${fiveb}  ${sixb} INF INF
region		block7		block INF INF  ${sixb}  ${sevenb} INF INF
region		block8		block INF INF  ${sevenb}  ${eightb} INF INF
region		block9		block INF INF  ${eightb}  ${nineb} INF INF
region		block10		block INF INF  ${nineb}  ${tenb} INF INF
group           gblock1     region block1
group           gblock2     region block2
group           gblock3     region block3
group           gblock4     region block4
group           gblock5     region block5
group           gblock6     region block6
group           gblock7     region block7
group           gblock8     region block8
group           gblock9     region block9
group           gblock10    region block10


### Potentials ###
mass        1     127.6 #Te #reverse order
mass        2     207.2 #Pb
pair_style 		mlip mlip.ini
pair_coeff 		* *


### Output Setting ###
compute         hot_temp  	 gthigh  	temp 
compute         cold_temp 	 gtlow 		temp 
compute		innt_temp	 innt		temp 
compute         innernt_temp innernt 	temp  
compute         block1_temp  gblock1  	temp 
compute         block2_temp  gblock2  	temp 
compute         block3_temp  gblock3  	temp 
compute         block4_temp  gblock4  	temp 
compute         block5_temp  gblock5  	temp 
compute         block6_temp  gblock6  	temp 
compute         block7_temp  gblock7  	temp 
compute         block8_temp  gblock8  	temp 
compute         block9_temp  gblock9  	temp 
compute         block10_temp  gblock10  temp 

compute 	ke innernt ke/atom
compute 	pe innernt pe/atom
compute 	stress innernt stress/atom NULL virial
compute 	flux innernt heat/flux ke pe stress


###equilibration run###
thermo          1000
thermo_style 	custom step etotal pxx pyy pzz 
dump            1 all atom 10000 relaxation.lammpstrj
velocity	gfixed  set 0.0	0.0 0.0	
fix		1 gfixed setforce 0.0 0.0 0.0
velocity 	innt create 300 5070 rot yes dist gaussian
fix 		2 innt nvt temp 300 300 0.1
run		100000
unfix       	2
undump          1

### Flux calculation ###
reset_timestep 	0
dump            2 all atom 10000 production.lammpstrj
fix     	3 innt nve
fix         	hot1 gthigh langevin 350 350 0.1 140741 tally yes
fix         	cold1 gtlow  langevin 250 250 0.1 630180 tally yes
fix 		4 all ave/time 10 100 1000 f_hot1 f_cold1 c_block1_temp c_block2_temp c_block3_temp c_block4_temp c_block5_temp c_block6_temp c_block7_temp c_block8_temp c_block9_temp c_block10_temp file compute_Energy_Temp.out    
fix 		5 all ave/time 10 100 1000 c_flux[1] c_flux[2] c_flux[3] c_flux[4] c_flux[5] c_flux[6] file compute_HeatFlux.out           
thermo_style 	custom step etotal c_innernt_temp c_hot_temp c_cold_temp f_hot1 f_cold1  
run		2000000